;; sequence(s): A168432
;; terms: 0 1 2064 265842 8389120 122071875 1088395056 6920652004 34359754752 141214797765 500000050000 1569214268886 4458050348544 11649042746887 28346956456560 64873169325000 140737488879616 291311119324809
;; small program: ((loop(x * x, 2, x * x) + x) div 2) * loop(x * x, 2, x)
;; fast program: loop2((((x * x) + y) div 2) * x, x, 1, ((x * x) * x) * x, x)
(set-logic UFNIA)
(define-fun divf ((a Int) (b Int)) Int (ite (< 0 b) (div a b) (div (- a) (- b))))
(declare-fun f0 (Int) Int)
(declare-fun g0 () Int)
(declare-fun h0 (Int) Int)
(declare-fun u0 (Int Int) Int)
(declare-fun v0 (Int) Int)
(declare-fun f1 (Int) Int)
(declare-fun g1 () Int)
(declare-fun h1 (Int) Int)
(declare-fun u1 (Int Int) Int)
(declare-fun v1 (Int) Int)
(declare-fun small (Int) Int)
(declare-fun f2 (Int Int) Int)
(declare-fun g2 (Int) Int)
(declare-fun h2 () Int)
(declare-fun i2 (Int) Int)
(declare-fun j2 (Int) Int)
(declare-fun u2 (Int Int Int) Int)
(declare-fun v2 (Int Int Int) Int)
(declare-fun w2 (Int) Int)
(declare-fun fast (Int) Int)
(assert (forall ((x Int)) (= (f0 x) (* x x))))
(assert (= g0 2))
(assert (forall ((x Int)) (= (h0 x) (* x x))))
(assert (forall ((x Int) (y Int)) (= (u0 x y) (ite (<= x 0) y (f0 (u0 (- x 1) y))))))
(assert (forall ((x Int)) (= (v0 x) (u0 g0 (h0 x)))))
(assert (forall ((x Int)) (= (f1 x) (* x x))))
(assert (= g1 2))
(assert (forall ((x Int)) (= (h1 x) x)))
(assert (forall ((x Int) (y Int)) (= (u1 x y) (ite (<= x 0) y (f1 (u1 (- x 1) y))))))
(assert (forall ((x Int)) (= (v1 x) (u1 g1 (h1 x)))))
(assert (forall ((x Int)) (= (small x) (* (divf (+ (v0 x) x) 2) (v1 x)))))
(assert (forall ((x Int) (y Int)) (= (f2 x y) (* (divf (+ (* x x) y) 2) x))))
(assert (forall ((x Int)) (= (g2 x) x)))
(assert (= h2 1))
(assert (forall ((x Int)) (= (i2 x) (* (* (* x x) x) x))))
(assert (forall ((x Int)) (= (j2 x) x)))
(assert (forall ((x Int) (y Int) (z Int)) (= (u2 x y z) (ite (<= x 0) y (f2 (u2 (- x 1) y z) (v2 (- x 1) y z))))))
(assert (forall ((x Int) (y Int) (z Int)) (= (v2 x y z) (ite (<= x 0) z (g2 (u2 (- x 1) y z))))))
(assert (forall ((x Int)) (= (w2 x) (u2 h2 (i2 x) (j2 x)))))
(assert (forall ((x Int)) (= (fast x) (w2 x))))
(assert (exists ((c Int)) (and (>= c 0) (not (= (small c) (fast c))))))
(check-sat)
